
Gurobi 11.0.1 (win64) logging started Tue May 14 15:33:32 2024

Set parameter LogFile to value "output/solver_log0.txt"
Gurobi Optimizer version 11.0.1 build v11.0.1rc0 (win64 - Windows 11.0 (22631.2))

CPU model: 11th Gen Intel(R) Core(TM) i7-1165G7 @ 2.80GHz, instruction set [SSE2|AVX|AVX2|AVX512]
Thread count: 4 physical cores, 8 logical processors, using up to 8 threads

Optimize a model with 2634 rows, 659 columns and 50489 nonzeros
Model fingerprint: 0xf1f306bc
Variable types: 248 continuous, 411 integer (411 binary)
Coefficient statistics:
  Matrix range     [4e-01, 1e+05]
  Objective range  [1e+00, 1e+02]
  Bounds range     [1e+00, 1e+00]
  RHS range        [1e-02, 1e+05]

User MIP start produced solution with objective 38536.4 (0.02s)
User MIP start produced solution with objective 38551.1 (0.02s)
User MIP start produced solution with objective 39027.9 (0.02s)
User MIP start produced solution with objective 39088.2 (0.02s)
User MIP start produced solution with objective 39102.9 (0.02s)
User MIP start produced solution with objective 39102.9 (0.03s)
Loaded user MIP start with objective 39102.9

Presolve removed 206 rows and 175 columns
Presolve time: 0.05s
Presolved: 2428 rows, 484 columns, 48154 nonzeros
Variable types: 234 continuous, 250 integer (246 binary)

Root relaxation: objective 4.978154e+04, 540 iterations, 0.04 seconds (0.06 work units)

    Nodes    |    Current Node    |     Objective Bounds      |     Work
 Expl Unexpl |  Obj  Depth IntInf | Incumbent    BestBd   Gap | It/Node Time

     0     0 49781.5381    0   14 39102.8658 49781.5381  27.3%     -    0s
     0     0 47003.5140    0   35 39102.8658 47003.5140  20.2%     -    0s
     0     0 46840.7294    0   33 39102.8658 46840.7294  19.8%     -    0s
     0     0 46783.8043    0   27 39102.8658 46783.8043  19.6%     -    0s
     0     0 46783.8043    0   32 39102.8658 46783.8043  19.6%     -    0s
     0     0 46318.5475    0   32 39102.8658 46318.5475  18.5%     -    0s
     0     0 46235.8980    0   35 39102.8658 46235.8980  18.2%     -    0s
     0     0 46235.8980    0   42 39102.8658 46235.8980  18.2%     -    0s
     0     0 46235.8980    0   42 39102.8658 46235.8980  18.2%     -    0s
     0     0 45853.0133    0   34 39102.8658 45853.0133  17.3%     -    0s
     0     0 45731.0914    0   31 39102.8658 45731.0914  17.0%     -    0s
     0     0 45731.0914    0   31 39102.8658 45731.0914  17.0%     -    0s
     0     0 45728.2018    0   26 39102.8658 45728.2018  16.9%     -    1s
     0     0 45557.5309    0   30 39102.8658 45557.5309  16.5%     -    1s
     0     0 45557.5309    0   40 39102.8658 45557.5309  16.5%     -    1s
     0     0 45557.5309    0   45 39102.8658 45557.5309  16.5%     -    1s
     0     0 45557.5309    0   45 39102.8658 45557.5309  16.5%     -    1s
     0     0 45557.5309    0   51 39102.8658 45557.5309  16.5%     -    1s
     0     0 45557.5309    0   58 39102.8658 45557.5309  16.5%     -    1s
     0     0 45557.5309    0   51 39102.8658 45557.5309  16.5%     -    1s
     0     0 45557.5309    0   52 39102.8658 45557.5309  16.5%     -    1s
     0     0 45557.5309    0   52 39102.8658 45557.5309  16.5%     -    1s
     0     0 45557.5309    0   48 39102.8658 45557.5309  16.5%     -    1s
     0     0 45557.5309    0   54 39102.8658 45557.5309  16.5%     -    1s
     0     0 45557.5309    0   54 39102.8658 45557.5309  16.5%     -    1s
     0     2 45557.5309    0   54 39102.8658 45557.5309  16.5%     -    1s
H   94    75                    39193.460313 44159.9689  12.7%   420    3s
H  169   155                    39231.651906 44159.9689  12.6%   271    3s
*  237   192              10    39262.458580 44150.3368  12.4%   220    4s
H  276   200                    39342.183983 43817.8928  11.4%   224    4s
H  324   183                    39459.128834 42153.3362  6.83%   233    4s
H  325   183                    39497.547891 42153.3362  6.72%   235    4s
   341   158     cutoff    8      39497.5479 41768.2591  5.75%   248    5s
*  690   325              71    39501.612211 39536.6213  0.09%   156    5s
H 1247   604                    39534.514609 39536.6213  0.01%   123    7s

Cutting planes:
  Gomory: 3
  Implied bound: 4
  MIR: 38
  RLT: 3

Explored 1422 nodes (174234 simplex iterations) in 7.49 seconds (17.98 work units)
Thread count was 8 (of 8 available processors)

Solution count 10: 39534.5 39534.5 39501.6 ... 39102.9

Optimal solution found (tolerance 1.00e-04)
Best objective 3.953451460864e+04, best bound 3.953662130308e+04, gap 0.0053%
